AES/1_3_4/ssaes_r1-20_c3_rw1_e4_f0_k1-20_aes_1base_box_aes_mc_bidirectional/ExperimentMinisat_r2_k16cnf_2011-10-29-153230/Result
WARNING: for repeatability, setting FPU to use double precision
============================[ Problem Statistics ]=============================
|                                                                             |
|  Number of variables:           148                                         |
|  Number of clauses:             552                                         |
|  Parse time:                   0.00 s                                       |
|  Eliminated clauses:           0.00 Mb                                      |
|  Simplification time:          0.00 s                                       |
|                                                                             |
=============================[ Search Statistics ]==============================
| Conflicts  |          ORIGINAL         |          LEARNT          | Progress |
|            |    Vars  Clauses Literals |    Limit  Clauses Lit/Cl |          |
================================================================================
|        100 |      80      384     1248 |      140      100      8 | 21.635 % |
===============================================================================
restarts              : 2
conflicts             : 143            (47683 /sec)
decisions             : 158            (0.00 % random) (52684 /sec)
propagations          : 5068           (1689897 /sec)
conflict literals     : 1106           (28.46 % deleted)
Memory used           : 8.00 MB
CPU time              : 0.002999 s

SATISFIABLE
